50
45 16
98 95
84 50
90 31
5 16
57 89
52 6
53 29
13 67
58 61
39 85
17 67
95 40
62 24
11 12
48 95
2 89
99 88
23 12
14 21
74 76
54 12
49 12
71 79
59 38
98 84
77 40
86 69
18 7
59 59
17 2
52 81
92 40
12 96
63 24
27 29
97 23
13 58
65 58
16 60
85 95
81 4
4 94
29 84
38 13
54 17
65 71
59 15
13 68
88 52
